%rwf=h2.rwf
%mem=8gb
%NProcShared=NSLOTS
%chk=h2.chk

# RHF/3-21G

Dooh H2

0 1
H1
H2 H1 r1

r1 0.7348
