# rhf/cc-pV6Z pop=nbo6

Water...rhf/cc-pV6Z//idealized

0 1
O       0.000000       0.000000       0.110851
H       0.000000       0.783837      -0.443405
H       0.000000      -0.783837      -0.443405

