! HF SVP

%pal nprocs NSLOTS
     end

* xyz 0 1
C 0.0 0.0 0.0
O 0.0 0.0 1.13
*
