#
# My first ORCA calculation :-)
#


! HF SVP

%pal nprocs 4
     end

* xyz 0 1
C 0.0 0.0 0.0
O 0.0 0.0 1.13
*
